* #variable= 40 #constraint= 120 #product= 340 sizeproduct= 40
min: 1 x2 x1 1 x4 x3 1 x6 x5 1 x8 x7 1 x10 x9 1 x12 x11 1 x14 x13 1 x16 x15 1 x18 x17 1 x20 x19 1 x22 x21 1 x24 x23 1 x26 x25 1 x28 x27 1 x30 x29 1 x32 x31 1 x34 x33 1 x36 x35 1 x38 x37 1 x40 x39 ;
1 x2 ~x1 1 x2 x1 >= 1;
1 x4 ~x3 1 x4 x3 >= 1;
1 x6 ~x5 1 x6 x5 >= 1;
1 x8 ~x7 1 x8 x7 >= 1;
1 x10 ~x9 1 x10 x9 >= 1;
1 x12 ~x11 1 x12 x11 >= 1;
1 x14 ~x13 1 x14 x13 >= 1;
1 x16 ~x15 1 x16 x15 >= 1;
1 x18 ~x17 1 x18 x17 >= 1;
1 x20 ~x19 1 x20 x19 >= 1;
1 x22 ~x21 1 x22 x21 >= 1;
1 x24 ~x23 1 x24 x23 >= 1;
1 x26 ~x25 1 x26 x25 >= 1;
1 x28 ~x27 1 x28 x27 >= 1;
1 x30 ~x29 1 x30 x29 >= 1;
1 x32 ~x31 1 x32 x31 >= 1;
1 x34 ~x33 1 x34 x33 >= 1;
1 x36 ~x35 1 x36 x35 >= 1;
1 x38 ~x37 1 x38 x37 >= 1;
1 x40 ~x39 1 x40 x39 >= 1;
1 x1 ~x2 1 x21 ~x22 1 x1 x2 x21 x22 >= 1;
1 x1 ~x2 1 x23 ~x24 1 x1 x2 x23 x24 >= 1;
1 x1 ~x2 1 x25 ~x26 1 x1 x2 x25 x26 >= 1;
1 x1 ~x2 1 x27 ~x28 1 x1 x2 x27 x28 >= 1;
1 x1 ~x2 1 x29 ~x30 1 x1 x2 x29 x30 >= 1;
1 x1 ~x2 1 x31 ~x32 1 x1 x2 x31 x32 >= 1;
1 x1 ~x2 1 x33 ~x34 1 x1 x2 x33 x34 >= 1;
1 x1 ~x2 1 x35 ~x36 1 x1 x2 x35 x36 >= 1;
1 x1 ~x2 1 x37 ~x38 1 x1 x2 x37 x38 >= 1;
1 x1 ~x2 1 x39 ~x40 1 x1 x2 x39 x40 >= 1;
1 x3 ~x4 1 x21 ~x22 1 x3 x4 x21 x22 >= 1;
1 x3 ~x4 1 x23 ~x24 1 x3 x4 x23 x24 >= 1;
1 x3 ~x4 1 x25 ~x26 1 x3 x4 x25 x26 >= 1;
1 x3 ~x4 1 x27 ~x28 1 x3 x4 x27 x28 >= 1;
1 x3 ~x4 1 x29 ~x30 1 x3 x4 x29 x30 >= 1;
1 x3 ~x4 1 x31 ~x32 1 x3 x4 x31 x32 >= 1;
1 x3 ~x4 1 x33 ~x34 1 x3 x4 x33 x34 >= 1;
1 x3 ~x4 1 x35 ~x36 1 x3 x4 x35 x36 >= 1;
1 x3 ~x4 1 x37 ~x38 1 x3 x4 x37 x38 >= 1;
1 x3 ~x4 1 x39 ~x40 1 x3 x4 x39 x40 >= 1;
1 x5 ~x6 1 x21 ~x22 1 x5 x6 x21 x22 >= 1;
1 x5 ~x6 1 x23 ~x24 1 x5 x6 x23 x24 >= 1;
1 x5 ~x6 1 x25 ~x26 1 x5 x6 x25 x26 >= 1;
1 x5 ~x6 1 x27 ~x28 1 x5 x6 x27 x28 >= 1;
1 x5 ~x6 1 x29 ~x30 1 x5 x6 x29 x30 >= 1;
1 x5 ~x6 1 x31 ~x32 1 x5 x6 x31 x32 >= 1;
1 x5 ~x6 1 x33 ~x34 1 x5 x6 x33 x34 >= 1;
1 x5 ~x6 1 x35 ~x36 1 x5 x6 x35 x36 >= 1;
1 x5 ~x6 1 x37 ~x38 1 x5 x6 x37 x38 >= 1;
1 x5 ~x6 1 x39 ~x40 1 x5 x6 x39 x40 >= 1;
1 x7 ~x8 1 x21 ~x22 1 x7 x8 x21 x22 >= 1;
1 x7 ~x8 1 x23 ~x24 1 x7 x8 x23 x24 >= 1;
1 x7 ~x8 1 x25 ~x26 1 x7 x8 x25 x26 >= 1;
1 x7 ~x8 1 x27 ~x28 1 x7 x8 x27 x28 >= 1;
1 x7 ~x8 1 x29 ~x30 1 x7 x8 x29 x30 >= 1;
1 x7 ~x8 1 x31 ~x32 1 x7 x8 x31 x32 >= 1;
1 x7 ~x8 1 x33 ~x34 1 x7 x8 x33 x34 >= 1;
1 x7 ~x8 1 x35 ~x36 1 x7 x8 x35 x36 >= 1;
1 x7 ~x8 1 x37 ~x38 1 x7 x8 x37 x38 >= 1;
1 x7 ~x8 1 x39 ~x40 1 x7 x8 x39 x40 >= 1;
1 x9 ~x10 1 x21 ~x22 1 x9 x10 x21 x22 >= 1;
1 x9 ~x10 1 x23 ~x24 1 x9 x10 x23 x24 >= 1;
1 x9 ~x10 1 x25 ~x26 1 x9 x10 x25 x26 >= 1;
1 x9 ~x10 1 x27 ~x28 1 x9 x10 x27 x28 >= 1;
1 x9 ~x10 1 x29 ~x30 1 x9 x10 x29 x30 >= 1;
1 x9 ~x10 1 x31 ~x32 1 x9 x10 x31 x32 >= 1;
1 x9 ~x10 1 x33 ~x34 1 x9 x10 x33 x34 >= 1;
1 x9 ~x10 1 x35 ~x36 1 x9 x10 x35 x36 >= 1;
1 x9 ~x10 1 x37 ~x38 1 x9 x10 x37 x38 >= 1;
1 x9 ~x10 1 x39 ~x40 1 x9 x10 x39 x40 >= 1;
1 x11 ~x12 1 x21 ~x22 1 x11 x12 x21 x22 >= 1;
1 x11 ~x12 1 x23 ~x24 1 x11 x12 x23 x24 >= 1;
1 x11 ~x12 1 x25 ~x26 1 x11 x12 x25 x26 >= 1;
1 x11 ~x12 1 x27 ~x28 1 x11 x12 x27 x28 >= 1;
1 x11 ~x12 1 x29 ~x30 1 x11 x12 x29 x30 >= 1;
1 x11 ~x12 1 x31 ~x32 1 x11 x12 x31 x32 >= 1;
1 x11 ~x12 1 x33 ~x34 1 x11 x12 x33 x34 >= 1;
1 x11 ~x12 1 x35 ~x36 1 x11 x12 x35 x36 >= 1;
1 x11 ~x12 1 x37 ~x38 1 x11 x12 x37 x38 >= 1;
1 x11 ~x12 1 x39 ~x40 1 x11 x12 x39 x40 >= 1;
1 x13 ~x14 1 x21 ~x22 1 x13 x14 x21 x22 >= 1;
1 x13 ~x14 1 x23 ~x24 1 x13 x14 x23 x24 >= 1;
1 x13 ~x14 1 x25 ~x26 1 x13 x14 x25 x26 >= 1;
1 x13 ~x14 1 x27 ~x28 1 x13 x14 x27 x28 >= 1;
1 x13 ~x14 1 x29 ~x30 1 x13 x14 x29 x30 >= 1;
1 x13 ~x14 1 x31 ~x32 1 x13 x14 x31 x32 >= 1;
1 x13 ~x14 1 x33 ~x34 1 x13 x14 x33 x34 >= 1;
1 x13 ~x14 1 x35 ~x36 1 x13 x14 x35 x36 >= 1;
1 x13 ~x14 1 x37 ~x38 1 x13 x14 x37 x38 >= 1;
1 x13 ~x14 1 x39 ~x40 1 x13 x14 x39 x40 >= 1;
1 x15 ~x16 1 x21 ~x22 1 x15 x16 x21 x22 >= 1;
1 x15 ~x16 1 x23 ~x24 1 x15 x16 x23 x24 >= 1;
1 x15 ~x16 1 x25 ~x26 1 x15 x16 x25 x26 >= 1;
1 x15 ~x16 1 x27 ~x28 1 x15 x16 x27 x28 >= 1;
1 x15 ~x16 1 x29 ~x30 1 x15 x16 x29 x30 >= 1;
1 x15 ~x16 1 x31 ~x32 1 x15 x16 x31 x32 >= 1;
1 x15 ~x16 1 x33 ~x34 1 x15 x16 x33 x34 >= 1;
1 x15 ~x16 1 x35 ~x36 1 x15 x16 x35 x36 >= 1;
1 x15 ~x16 1 x37 ~x38 1 x15 x16 x37 x38 >= 1;
1 x15 ~x16 1 x39 ~x40 1 x15 x16 x39 x40 >= 1;
1 x17 ~x18 1 x21 ~x22 1 x17 x18 x21 x22 >= 1;
1 x17 ~x18 1 x23 ~x24 1 x17 x18 x23 x24 >= 1;
1 x17 ~x18 1 x25 ~x26 1 x17 x18 x25 x26 >= 1;
1 x17 ~x18 1 x27 ~x28 1 x17 x18 x27 x28 >= 1;
1 x17 ~x18 1 x29 ~x30 1 x17 x18 x29 x30 >= 1;
1 x17 ~x18 1 x31 ~x32 1 x17 x18 x31 x32 >= 1;
1 x17 ~x18 1 x33 ~x34 1 x17 x18 x33 x34 >= 1;
1 x17 ~x18 1 x35 ~x36 1 x17 x18 x35 x36 >= 1;
1 x17 ~x18 1 x37 ~x38 1 x17 x18 x37 x38 >= 1;
1 x17 ~x18 1 x39 ~x40 1 x17 x18 x39 x40 >= 1;
1 x19 ~x20 1 x21 ~x22 1 x19 x20 x21 x22 >= 1;
1 x19 ~x20 1 x23 ~x24 1 x19 x20 x23 x24 >= 1;
1 x19 ~x20 1 x25 ~x26 1 x19 x20 x25 x26 >= 1;
1 x19 ~x20 1 x27 ~x28 1 x19 x20 x27 x28 >= 1;
1 x19 ~x20 1 x29 ~x30 1 x19 x20 x29 x30 >= 1;
1 x19 ~x20 1 x31 ~x32 1 x19 x20 x31 x32 >= 1;
1 x19 ~x20 1 x33 ~x34 1 x19 x20 x33 x34 >= 1;
1 x19 ~x20 1 x35 ~x36 1 x19 x20 x35 x36 >= 1;
1 x19 ~x20 1 x37 ~x38 1 x19 x20 x37 x38 >= 1;
1 x19 ~x20 1 x39 ~x40 1 x19 x20 x39 x40 >= 1;
